true true true
presolving:
presolving (0 rounds: 0 fast, 0 medium, 0 exhaustive):
 0 deleted vars, 0 deleted constraints, 0 added constraints, 0 tightened bounds, 0 added holes, 0 changed sides, 0 changed coefficients
 0 implications, 0 cliques
presolved problem has 49 variables (49 bin, 0 int, 0 impl, 0 cont) and 39 constraints
     39 constraints of type <linear>
transformed objective value is always integral (scale: 1)
Presolving Time: 0.00

 time | node  | left  |LP iter|LP it/n|mem/heur|mdpt |vars |cons |rows |cuts |sepa|confs|strbr|  dualbound   | primalbound  |  gap   | compl. 
p 0.0s|     1 |     0 |     0 |     - |shiftand|   0 |  49 |  39 |  39 |   0 |  0 |   0 |   0 |      --      | 1.000000e+01 |    Inf | unknown
 time | node  | left  |LP iter|LP it/n|mem/heur|mdpt |vars |cons |rows |cuts |sepa|confs|strbr|  dualbound   | primalbound  |  gap   | compl. 
  0.0s|     1 |     0 |    20 |     - |  1345k |   0 | 244 |  39 |  39 |   0 |  0 |   0 |   0 | 1.000000e+00 | 1.000000e+01 | 900.00%| unknown
 time | node  | left  |LP iter|LP it/n|mem/heur|mdpt |vars |cons |rows |cuts |sepa|confs|strbr|  dualbound   | primalbound  |  gap   | compl. 
  0.4s|     1 |     0 |   267 |     - |  3239k |   0 | 886 |  39 |  39 |   0 |  0 |   0 |   0 | 9.000000e+00 | 1.000000e+01 |  11.11%| unknown
 time | node  | left  |LP iter|LP it/n|mem/heur|mdpt |vars |cons |rows |cuts |sepa|confs|strbr|  dualbound   | primalbound  |  gap   | compl. 
  0.5s|     1 |     2 |  1006 |     - |  3487k |   0 | 886 |  39 |  39 |   0 |  1 |   0 |   0 | 9.000000e+00 | 1.000000e+01 |  11.11%| unknown
 time | node  | left  |LP iter|LP it/n|mem/heur|mdpt |vars |cons |rows |cuts |sepa|confs|strbr|  dualbound   | primalbound  |  gap   | compl. 
  0.5s|     2 |     3 |  1030 |  24.0 |  3540k |   1 | 886 |  39 |  39 |   0 |  1 |   0 |   0 | 9.000000e+00 | 1.000000e+01 |  11.11%| unknown
 time | node  | left  |LP iter|LP it/n|mem/heur|mdpt |vars |cons |rows |cuts |sepa|confs|strbr|  dualbound   | primalbound  |  gap   | compl. 
  0.5s|     3 |     4 |  1041 |  17.5 |  3691k |   1 | 886 |  39 |  39 |   0 |  1 |   0 |   0 | 9.000000e+00 | 1.000000e+01 |  11.11%| unknown
 time | node  | left  |LP iter|LP it/n|mem/heur|mdpt |vars |cons |rows |cuts |sepa|confs|strbr|  dualbound   | primalbound  |  gap   | compl. 
  0.6s|     4 |     5 |  1050 |  14.7 |  3707k |   2 | 886 |  39 |  39 |   0 |  1 |   0 |   0 | 9.000000e+00 | 1.000000e+01 |  11.11%| unknown
 time | node  | left  |LP iter|LP it/n|mem/heur|mdpt |vars |cons |rows |cuts |sepa|confs|strbr|  dualbound   | primalbound  |  gap   | compl. 
  0.6s|     5 |     6 |  1054 |  12.0 |  3710k |   3 | 886 |  39 |  39 |   0 |  1 |   0 |   0 | 9.000000e+00 | 1.000000e+01 |  11.11%| unknown
 time | node  | left  |LP iter|LP it/n|mem/heur|mdpt |vars |cons |rows |cuts |sepa|confs|strbr|  dualbound   | primalbound  |  gap   | compl. 
  0.6s|     6 |     7 |  1206 |  40.0 |  3923k |   3 | 886 |  39 |  39 |   0 |  1 |   0 |   0 | 9.000000e+00 | 1.000000e+01 |  11.11%| unknown
 time | node  | left  |LP iter|LP it/n|mem/heur|mdpt |vars |cons |rows |cuts |sepa|confs|strbr|  dualbound   | primalbound  |  gap   | compl. 
  0.7s|     7 |     8 |  1209 |  33.8 |  3928k |   4 | 886 |  39 |  39 |   0 |  1 |   0 |   0 | 9.000000e+00 | 1.000000e+01 |  11.11%| unknown
 time | node  | left  |LP iter|LP it/n|mem/heur|mdpt |vars |cons |rows |cuts |sepa|confs|strbr|  dualbound   | primalbound  |  gap   | compl. 
  0.7s|     8 |     9 |  1219 |  30.4 |  3934k |   5 | 886 |  39 |  39 |   0 |  1 |   0 |   0 | 9.000000e+00 | 1.000000e+01 |  11.11%| unknown
 time | node  | left  |LP iter|LP it/n|mem/heur|mdpt |vars |cons |rows |cuts |sepa|confs|strbr|  dualbound   | primalbound  |  gap   | compl. 
  0.7s|     9 |    10 |  1299 |  36.6 |  3939k |   5 | 886 |  39 |  39 |   0 |  1 |   0 |   0 | 9.000000e+00 | 1.000000e+01 |  11.11%| unknown
 time | node  | left  |LP iter|LP it/n|mem/heur|mdpt |vars |cons |rows |cuts |sepa|confs|strbr|  dualbound   | primalbound  |  gap   | compl. 
  0.8s|    10 |    11 |  1332 |  36.2 |  3945k |   6 | 886 |  39 |  39 |   0 |  1 |   0 |   0 | 9.000000e+00 | 1.000000e+01 |  11.11%| unknown
 time | node  | left  |LP iter|LP it/n|mem/heur|mdpt |vars |cons |rows |cuts |sepa|confs|strbr|  dualbound   | primalbound  |  gap   | compl. 
  0.8s|    11 |    12 |  1427 |  42.1 |  3950k |   7 | 886 |  39 |  39 |   0 |  1 |   0 |   0 | 9.000000e+00 | 1.000000e+01 |  11.11%| unknown
 time | node  | left  |LP iter|LP it/n|mem/heur|mdpt |vars |cons |rows |cuts |sepa|confs|strbr|  dualbound   | primalbound  |  gap   | compl. 
  0.9s|    12 |    13 |  1428 |  38.4 |  3952k |   7 | 886 |  39 |  39 |   0 |  1 |   0 |   0 | 9.000000e+00 | 1.000000e+01 |  11.11%| unknown
 time | node  | left  |LP iter|LP it/n|mem/heur|mdpt |vars |cons |rows |cuts |sepa|confs|strbr|  dualbound   | primalbound  |  gap   | compl. 
  0.9s|    13 |    14 |  1436 |  35.8 |  3953k |   7 | 886 |  39 |  39 |   0 |  1 |   0 |   0 | 9.000000e+00 | 1.000000e+01 |  11.11%| unknown
 time | node  | left  |LP iter|LP it/n|mem/heur|mdpt |vars |cons |rows |cuts |sepa|confs|strbr|  dualbound   | primalbound  |  gap   | compl. 
  0.9s|    14 |    15 |  1476 |  36.2 |  4020k |   7 | 886 |  39 |  39 |   0 |  1 |   0 |   0 | 9.000000e+00 | 1.000000e+01 |  11.11%| unknown
 time | node  | left  |LP iter|LP it/n|mem/heur|mdpt |vars |cons |rows |cuts |sepa|confs|strbr|  dualbound   | primalbound  |  gap   | compl. 
  1.0s|    15 |    16 |  1504 |  35.6 |  4086k |   8 | 886 |  39 |  39 |   0 |  1 |   0 |   0 | 9.000000e+00 | 1.000000e+01 |  11.11%| unknown
 time | node  | left  |LP iter|LP it/n|mem/heur|mdpt |vars |cons |rows |cuts |sepa|confs|strbr|  dualbound   | primalbound  |  gap   | compl. 
  1.0s|    16 |    17 |  1512 |  33.7 |  4090k |   8 | 886 |  39 |  39 |   0 |  1 |   0 |   0 | 9.000000e+00 | 1.000000e+01 |  11.11%| unknown
 time | node  | left  |LP iter|LP it/n|mem/heur|mdpt |vars |cons |rows |cuts |sepa|confs|strbr|  dualbound   | primalbound  |  gap   | compl. 
  1.0s|    17 |    18 |  1515 |  31.8 |  4090k |   9 | 886 |  39 |  39 |   0 |  1 |   0 |   0 | 9.000000e+00 | 1.000000e+01 |  11.11%| unknown
 time | node  | left  |LP iter|LP it/n|mem/heur|mdpt |vars |cons |rows |cuts |sepa|confs|strbr|  dualbound   | primalbound  |  gap   | compl. 
  1.1s|    18 |    19 |  1555 |  32.3 |  4090k |  10 | 886 |  39 |  39 |   0 |  1 |   0 |   0 | 9.000000e+00 | 1.000000e+01 |  11.11%| unknown
 time | node  | left  |LP iter|LP it/n|mem/heur|mdpt |vars |cons |rows |cuts |sepa|confs|strbr|  dualbound   | primalbound  |  gap   | compl. 
  1.1s|    19 |    20 |  1559 |  30.7 |  4091k |  11 | 886 |  39 |  39 |   0 |  1 |   0 |   0 | 9.000000e+00 | 1.000000e+01 |  11.11%| unknown
 time | node  | left  |LP iter|LP it/n|mem/heur|mdpt |vars |cons |rows |cuts |sepa|confs|strbr|  dualbound   | primalbound  |  gap   | compl. 
  1.1s|    20 |    21 |  1581 |  30.3 |  4092k |  12 | 886 |  39 |  39 |   0 |  1 |   0 |   0 | 9.000000e+00 | 1.000000e+01 |  11.11%| unknown
 time | node  | left  |LP iter|LP it/n|mem/heur|mdpt |vars |cons |rows |cuts |sepa|confs|strbr|  dualbound   | primalbound  |  gap   | compl. 
  1.2s|    21 |    22 |  1821 |  40.8 |  4092k |  13 | 886 |  39 |  39 |   0 |  1 |   0 |   0 | 9.000000e+00 | 1.000000e+01 |  11.11%| unknown
 time | node  | left  |LP iter|LP it/n|mem/heur|mdpt |vars |cons |rows |cuts |sepa|confs|strbr|  dualbound   | primalbound  |  gap   | compl. 
  1.2s|    22 |    23 |  1825 |  39.0 |  4093k |  13 | 886 |  39 |  39 |   0 |  1 |   0 |   0 | 9.000000e+00 | 1.000000e+01 |  11.11%| unknown
 time | node  | left  |LP iter|LP it/n|mem/heur|mdpt |vars |cons |rows |cuts |sepa|confs|strbr|  dualbound   | primalbound  |  gap   | compl. 
  1.3s|    23 |    24 |  1966 |  43.6 |  4094k |  13 | 886 |  39 |  39 |   0 |  1 |   0 |   0 | 9.000000e+00 | 1.000000e+01 |  11.11%| unknown
 time | node  | left  |LP iter|LP it/n|mem/heur|mdpt |vars |cons |rows |cuts |sepa|confs|strbr|  dualbound   | primalbound  |  gap   | compl. 
  1.3s|    24 |    25 |  1978 |  42.3 |  4094k |  13 | 886 |  39 |  39 |   0 |  1 |   0 |   0 | 9.000000e+00 | 1.000000e+01 |  11.11%| unknown
 time | node  | left  |LP iter|LP it/n|mem/heur|mdpt |vars |cons |rows |cuts |sepa|confs|strbr|  dualbound   | primalbound  |  gap   | compl. 
  1.3s|    25 |    26 |  2040 |  43.1 |  4099k |  13 | 886 |  39 |  39 |   0 |  1 |   0 |   0 | 9.000000e+00 | 1.000000e+01 |  11.11%| unknown
 time | node  | left  |LP iter|LP it/n|mem/heur|mdpt |vars |cons |rows |cuts |sepa|confs|strbr|  dualbound   | primalbound  |  gap   | compl. 
  1.4s|    26 |    27 |  2074 |  42.7 |  4099k |  13 | 886 |  39 |  39 |   0 |  1 |   0 |   0 | 9.000000e+00 | 1.000000e+01 |  11.11%| unknown
 time | node  | left  |LP iter|LP it/n|mem/heur|mdpt |vars |cons |rows |cuts |sepa|confs|strbr|  dualbound   | primalbound  |  gap   | compl. 
  1.4s|    27 |    28 |  2111 |  42.5 |  4100k |  13 | 886 |  39 |  39 |   0 |  1 |   0 |   0 | 9.000000e+00 | 1.000000e+01 |  11.11%| unknown
 time | node  | left  |LP iter|LP it/n|mem/heur|mdpt |vars |cons |rows |cuts |sepa|confs|strbr|  dualbound   | primalbound  |  gap   | compl. 
r 1.4s|    28 |     0 |  2135 |  41.8 |simplero|  13 | 886 |  39 |  39 |   0 |  0 |   0 |   0 | 9.000000e+00 | 9.000000e+00 |   0.00%|  99.98%

SCIP Status        : problem is solved [optimal solution found]
Solving Time (sec) : 1.45
Solving Nodes      : 28
Primal Bound       : +9.00000000000000e+00 (4 solutions)
Dual Bound         : +9.00000000000000e+00
Gap                : 0.00 %
Running with parallel: True bidir: True symbreak: True
Number of Nodes:  39
47.09115123316307% holds
starting cheapest insertion heuristic
Heuristic without TSP improvement:  11
Heuristic without TSP improvement time:  0.1
Heuristic Sol:  10
Heuristic total time:  0.1
[[14, 8, 26, 4, 12, 3, 1, 9, 17], [0, 10, 29, 28, 25, 6], [15, 32, 7], [16, 27, 11], [24, 21, 19], [38, 35, 22], [37, 18, 33, 31], [36, 23, 13], [34, 5], [30, 2, 20]]
Instance path:  /home/htc/mghannam/SCRATCH/lccp-rust/data/at84_ftv38.npcc
Timelimit:  7200
Heuristic without TSP improvement:  11
Heuristic without TSP improvement time:  0.1
Heuristic Sol:  10
Heuristic total time:  0.2
at 1 zero_duals: 29
at1, LP obj: 10.0 n_added_paths: 195
at 1 zero_duals: 29
at1, LP obj: 10.0 n_added_paths: 42
at 1 zero_duals: 17
at1, LP obj: 10.0 n_added_paths: 203
at 1 zero_duals: 8
at1, LP obj: 9.418181818181818 n_added_paths: 201
at 1 zero_duals: 5
at1, LP obj: 8.59090909090909 n_added_paths: 95
at 1 zero_duals: 11
Switching to elementary pricing
at1, LP obj: 8.4 n_added_paths: 15
updated lowerbound from 1.0 to 8
at 1 zero_duals: 11
Switching to elementary pricing
at1, LP obj: 8.23529411764706 n_added_paths: 30
at 1 zero_duals: 6
Switching to elementary pricing
at1, LP obj: 8.2 n_added_paths: 48
at 1 zero_duals: 6
Switching to elementary pricing
at1, LP obj: 8.180327868852459 n_added_paths: 8
at 1 zero_duals: 9
Switching to elementary pricing
at1, LP obj: 8.166666666666666 n_added_paths: 0
updated lowerbound from 8.0 to 9
Gap too small = 0, stopping pricing with lb = 9
Gap too small = 0, stopping pricing with lb = 9
Gap too small = 0, stopping pricing with lb = 9
Gap too small = 0, stopping pricing with lb = 9
Gap too small = 0, stopping pricing with lb = 9
Gap too small = 0, stopping pricing with lb = 9
Gap too small = 0, stopping pricing with lb = 9
Gap too small = 0, stopping pricing with lb = 9
Gap too small = 0, stopping pricing with lb = 9
Gap too small = 0, stopping pricing with lb = 9
Gap too small = 0, stopping pricing with lb = 9
Gap too small = 0, stopping pricing with lb = 9
Gap too small = 0, stopping pricing with lb = 9
Gap too small = 0, stopping pricing with lb = 9
Gap too small = 0, stopping pricing with lb = 9
Gap too small = 0, stopping pricing with lb = 9
Gap too small = 0, stopping pricing with lb = 9
Gap too small = 0, stopping pricing with lb = 9
Gap too small = 0, stopping pricing with lb = 9
Gap too small = 0, stopping pricing with lb = 9
Gap too small = 0, stopping pricing with lb = 9
Gap too small = 0, stopping pricing with lb = 9
Gap too small = 0, stopping pricing with lb = 9
Gap too small = 0, stopping pricing with lb = 9
Gap too small = 0, stopping pricing with lb = 9
Gap too small = 0, stopping pricing with lb = 9
Gap too small = 0, stopping pricing with lb = 9
Best solution found:
t_[16, 11, 15, 16] 1.0 1.0
checking cycle [16, 11, 15, 16]
[16, 11, 15, 16] 290 289
t_[24, 31, 36, 5, 24] 1.0 1.0
checking cycle [24, 31, 36, 5, 24]
[24, 31, 36, 5, 24] 203 190
t_[38, 35, 22, 38] 1.0 1.0
checking cycle [38, 35, 22, 38]
[38, 35, 22, 38] 193 121
t_[37, 18, 33, 37] 1.0 1.0
checking cycle [37, 18, 33, 37]
[37, 18, 33, 37] 194 132
t_[34, 7, 32, 34] 1.0 1.0
checking cycle [34, 7, 32, 34]
[34, 7, 32, 34] 218 170
[9, 1, 2, 6, 3, 9] 1.0 1.0
checking cycle [9, 1, 2, 6, 3, 9]
[9, 1, 2, 6, 3, 9] 332 297
[27, 17, 14, 8, 26, 21, 19, 27] 1.0 1.0
checking cycle [27, 17, 14, 8, 26, 21, 19, 27]
[27, 17, 14, 8, 26, 21, 19, 27] 256 239
[30, 20, 23, 13, 30] 1.0 1.0
checking cycle [30, 20, 23, 13, 30]
[30, 20, 23, 13, 30] 243 238
[29, 28, 12, 4, 25, 0, 10, 29] 1.0 1.0
checking cycle [29, 28, 12, 4, 25, 0, 10, 29]
[29, 28, 12, 4, 25, 0, 10, 29] 244 233
